1 1 0 0 0 0 0 1 1 1 
0 39 42 17 40 10 43 48 36 26 
39 0 34 27 41 23 21 23 8 14 
42 34 0 31 50 34 48 31 48 24 
17 27 31 0 20 35 36 50 22 44 
40 41 50 20 0 38 25 29 43 22 
10 23 34 35 38 0 34 19 38 28 
43 21 48 36 25 34 0 17 21 27 
48 23 31 50 29 19 17 0 24 36 
36 8 48 22 43 38 21 24 0 15 
26 14 24 44 22 28 27 36 15 0 
3 27
1P 4B 5B 7B 9P 2P 10P 3B 8P 6B = 189